clingo version 5.7.1
Reading from campionato.cl
Solving...
UNKNOWN

INTERRUPTED  : 1
Models       : 0+
Calls        : 1
Time         : 3801.981s (Solving: 3801.63s 1st Model: 0.00s Unsat: 0.00s)
CPU Time     : 3777.158s
